p tw 20 53
0 1
0 2
0 5
0 6
0 12
0 7
0 10
0 18
0 13
0 14
0 15
0 3
0 11
1 13
1 3
1 2
2 7
2 8
2 16
2 5
3 4
3 13
3 16
3 7
3 18
4 9
4 10
4 5
4 14
5 14
5 6
5 8
5 12
6 7
6 17
6 8
7 17
7 12
7 14
8 15
8 12
9 12
10 11
10 17
10 12
10 19
11 13
11 17
12 13
13 19
13 16
16 19
17 18
